34, 3435
2635, 1106
1414, 4414
1915, 3741
5724, 2517
3492, 1178
1039, 4797
1637, 3165
1399, 2655
5469, 3637
3286, 2790
2245, 2133
4226, 2860
2827, 4333
5265, 3024
3107, 2724
3275, 4965
1347, 4580
3432, 4041
1640, 3477
4055, 4569
1804, 3000
4695, 4693
2056, 4091
4247, 4403
4930, 2637
4397, 2742
5451, 3623
3961, 3701
3898, 4059
5834, 3315
4195, 1534
1999, 4159
1203, 1401
3429, 1758